c User generated cnf file
p cnf 13 78
3 -6 2 0 
12 12 -1 0 
10 5 -2 0 
6 -2 8 0 
12 -4 6 0 
4 13 -2 0 
8 12 -3 0 
12 -1 4 0 
7 8 -9 0 
13 13 -12 0 
2 -13 6 0 
2 -1 9 0 
11 4 -12 0 
1 -5 3 0 
7 -6 10 0 
1 -4 5 0 
7 10 -11 0 
3 7 -5 0 
10 -13 3 0 
1 3 -2 0 
11 3 -4 0 
9 1 -11 0 
2 5 -5 0 
13 -13 3 0 
12 12 -2 0 
7 -12 2 0 
5 2 -10 0 
10 10 -4 0 
11 -12 2 0 
3 -12 6 0 
12 13 -7 0 
9 -8 1 0 
1 -10 12 0 
5 3 -3 0 
3 -3 1 0 
5 -13 3 0 
8 -5 9 0 
1 7 -10 0 
5 -12 6 0 
6 7 -8 0 
9 9 -7 0 
7 -3 4 0 
11 -10 9 0 
10 4 -11 0 
9 5 -3 0 
2 11 -6 0 
13 8 -1 0 
10 3 -5 0 
10 8 -4 0 
9 1 -10 0 
2 -5 5 0 
6 10 -1 0 
10 1 -12 0 
3 13 -2 0 
3 -13 3 0 
13 7 -5 0 
3 9 -9 0 
11 9 -12 0 
10 8 -9 0 
3 -13 1 0 
10 11 -2 0 
12 -12 13 0 
10 8 -10 0 
2 -9 1 0 
2 -5 1 0 
11 -12 1 0 
9 11 -11 0 
10 -12 11 0 
7 5 -2 0 
12 8 -2 0 
12 2 -10 0 
6 -11 10 0 
3 -9 3 0 
4 12 -9 0 
9 1 -5 0 
3 8 -4 0 
12 -10 6 0 
2 -9 4 0 
